c generated by sgen
p cnf 85 180
-2 -3 -4 0
-1 -3 -4 0
-1 -2 -4 0
-1 -2 -3 0
-6 -7 -8 0
-5 -7 -8 0
-5 -6 -8 0
-5 -6 -7 0
-10 -11 -12 0
-9 -11 -12 0
-9 -10 -12 0
-9 -10 -11 0
-14 -15 -16 0
-13 -15 -16 0
-13 -14 -16 0
-13 -14 -15 0
-18 -19 -20 0
-17 -19 -20 0
-17 -18 -20 0
-17 -18 -19 0
-22 -23 -24 0
-21 -23 -24 0
-21 -22 -24 0
-21 -22 -23 0
-26 -27 -28 0
-25 -27 -28 0
-25 -26 -28 0
-25 -26 -27 0
-30 -31 -32 0
-29 -31 -32 0
-29 -30 -32 0
-29 -30 -31 0
-34 -35 -36 0
-33 -35 -36 0
-33 -34 -36 0
-33 -34 -35 0
-38 -39 -40 0
-37 -39 -40 0
-37 -38 -40 0
-37 -38 -39 0
-42 -43 -44 0
-41 -43 -44 0
-41 -42 -44 0
-41 -42 -43 0
-46 -47 -48 0
-45 -47 -48 0
-45 -46 -48 0
-45 -46 -47 0
-50 -51 -52 0
-49 -51 -52 0
-49 -50 -52 0
-49 -50 -51 0
-54 -55 -56 0
-53 -55 -56 0
-53 -54 -56 0
-53 -54 -55 0
-58 -59 -60 0
-57 -59 -60 0
-57 -58 -60 0
-57 -58 -59 0
-62 -63 -64 0
-61 -63 -64 0
-61 -62 -64 0
-61 -62 -63 0
-66 -67 -68 0
-65 -67 -68 0
-65 -66 -68 0
-65 -66 -67 0
-70 -71 -72 0
-69 -71 -72 0
-69 -70 -72 0
-69 -70 -71 0
-74 -75 -76 0
-73 -75 -76 0
-73 -74 -76 0
-73 -74 -75 0
-78 -79 -80 0
-77 -79 -80 0
-77 -78 -80 0
-77 -78 -79 0
-81 -82 -83 0
-81 -82 -84 0
-81 -82 -85 0
-81 -83 -84 0
-81 -83 -85 0
-81 -84 -85 0
-82 -83 -84 0
-82 -83 -85 0
-82 -84 -85 0
-83 -84 -85 0
79 33 3 0
29 33 3 0
29 79 3 0
29 79 33 0
26 18 70 0
51 18 70 0
51 26 70 0
51 26 18 0
38 2 28 0
82 2 28 0
82 38 28 0
82 38 2 0
66 72 73 0
1 72 73 0
1 66 73 0
1 66 72 0
12 25 55 0
63 25 55 0
63 12 55 0
63 12 25 0
6 68 23 0
27 68 23 0
27 6 23 0
27 6 68 0
21 43 56 0
76 43 56 0
76 21 56 0
76 21 43 0
84 41 34 0
69 41 34 0
69 84 34 0
69 84 41 0
36 7 13 0
45 7 13 0
45 36 13 0
45 36 7 0
64 19 85 0
15 19 85 0
15 64 85 0
15 64 19 0
61 46 22 0
57 46 22 0
57 61 22 0
57 61 46 0
39 31 59 0
8 31 59 0
8 39 59 0
8 39 31 0
58 67 80 0
16 67 80 0
16 58 80 0
16 58 67 0
75 83 48 0
49 83 48 0
49 75 48 0
49 75 83 0
71 32 47 0
54 32 47 0
54 71 47 0
54 71 32 0
77 5 9 0
81 5 9 0
81 77 9 0
81 77 5 0
35 60 52 0
53 60 52 0
53 35 52 0
53 35 60 0
74 11 4 0
20 11 4 0
20 74 4 0
20 74 11 0
24 10 14 0
37 10 14 0
37 24 14 0
37 24 10 0
50 78 42 0
62 78 42 0
62 50 42 0
62 50 78 0
30 17 65 0
30 17 44 0
30 17 40 0
30 65 44 0
30 65 40 0
30 44 40 0
17 65 44 0
17 65 40 0
17 44 40 0
65 44 40 0
